c nIsolatedPIs 2
c maxPI 22
p cnf 230 625
c gate 23 1 21 0
1 -23 0
21 -23 0
-1 -21 23 0
c gate 24 1 20 0
1 -24 0
20 -24 0
-1 -20 24 0
c gate 25 3 18 0
3 -25 0
18 -25 0
-3 -18 25 0
c gate 26 2 19 0
2 -26 0
19 -26 0
-2 -19 26 0
c gate 27 25 26 0
25 -27 0
26 -27 0
-25 -26 27 0
c gate 28 -25 -26 0
-25 -28 0
-26 -28 0
25 26 28 0
c gate 29 -27 -28 0
-27 -29 0
-28 -29 0
27 28 29 0
c gate 30 24 29 0
24 -30 0
29 -30 0
-24 -29 30 0
c gate 31 -24 -29 0
-24 -31 0
-29 -31 0
24 29 31 0
c gate 32 -30 -31 0
-30 -32 0
-31 -32 0
30 31 32 0
c gate 33 5 15 0
5 -33 0
15 -33 0
-5 -15 33 0
c gate 34 4 16 0
4 -34 0
16 -34 0
-4 -16 34 0
c gate 35 33 34 0
33 -35 0
34 -35 0
-33 -34 35 0
c gate 36 3 17 0
3 -36 0
17 -36 0
-3 -17 36 0
c gate 37 -33 -34 0
-33 -37 0
-34 -37 0
33 34 37 0
c gate 38 -35 -37 0
-35 -38 0
-37 -38 0
35 37 38 0
c gate 39 36 38 0
36 -39 0
38 -39 0
-36 -38 39 0
c gate 40 -35 -39 0
-35 -40 0
-39 -40 0
35 39 40 0
c gate 41 32 -40 0
32 -41 0
-40 -41 0
-32 40 41 0
c gate 42 -32 40 0
-32 -42 0
40 -42 0
32 -40 42 0
c gate 43 -41 -42 0
-41 -43 0
-42 -43 0
41 42 43 0
c gate 44 2 18 0
2 -44 0
18 -44 0
-2 -18 44 0
c gate 45 1 19 0
1 -45 0
19 -45 0
-1 -19 45 0
c gate 46 44 45 0
44 -46 0
45 -46 0
-44 -45 46 0
c gate 47 43 46 0
43 -47 0
46 -47 0
-43 -46 47 0
c gate 48 -41 -47 0
-41 -48 0
-47 -48 0
41 47 48 0
c gate 49 23 -48 0
23 -49 0
-48 -49 0
-23 48 49 0
c gate 50 6 14 0
6 -50 0
14 -50 0
-6 -14 50 0
c gate 51 8 12 0
8 -51 0
12 -51 0
-8 -12 51 0
c gate 52 7 13 0
7 -52 0
13 -52 0
-7 -13 52 0
c gate 53 51 52 0
51 -53 0
52 -53 0
-51 -52 53 0
c gate 54 -51 -52 0
-51 -54 0
-52 -54 0
51 52 54 0
c gate 55 -53 -54 0
-53 -55 0
-54 -55 0
53 54 55 0
c gate 56 50 55 0
50 -56 0
55 -56 0
-50 -55 56 0
c gate 57 -50 -55 0
-50 -57 0
-55 -57 0
50 55 57 0
c gate 58 -56 -57 0
-56 -58 0
-57 -58 0
56 57 58 0
c gate 59 7 12 0
7 -59 0
12 -59 0
-7 -12 59 0
c gate 60 6 13 0
6 -60 0
13 -60 0
-6 -13 60 0
c gate 61 -59 -60 0
-59 -61 0
-60 -61 0
59 60 61 0
c gate 62 59 60 0
59 -62 0
60 -62 0
-59 -60 62 0
c gate 63 -61 -62 0
-61 -63 0
-62 -63 0
61 62 63 0
c gate 64 5 14 0
5 -64 0
14 -64 0
-5 -14 64 0
c gate 65 63 -64 0
63 -65 0
-64 -65 0
-63 64 65 0
c gate 66 -61 -65 0
-61 -66 0
-65 -66 0
61 65 66 0
c gate 67 58 66 0
58 -67 0
66 -67 0
-58 -66 67 0
c gate 68 -36 -38 0
-36 -68 0
-38 -68 0
36 38 68 0
c gate 69 -39 -68 0
-39 -69 0
-68 -69 0
39 68 69 0
c gate 70 -58 -66 0
-58 -70 0
-66 -70 0
58 66 70 0
c gate 71 -67 -70 0
-67 -71 0
-70 -71 0
67 70 71 0
c gate 72 69 71 0
69 -72 0
71 -72 0
-69 -71 72 0
c gate 73 -67 -72 0
-67 -73 0
-72 -73 0
67 72 73 0
c gate 74 4 17 0
4 -74 0
17 -74 0
-4 -17 74 0
c gate 75 5 16 0
5 -75 0
16 -75 0
-5 -16 75 0
c gate 76 6 15 0
6 -76 0
15 -76 0
-6 -15 76 0
c gate 77 -75 -76 0
-75 -77 0
-76 -77 0
75 76 77 0
c gate 78 75 76 0
75 -78 0
76 -78 0
-75 -76 78 0
c gate 79 -77 -78 0
-77 -79 0
-78 -79 0
77 78 79 0
c gate 80 74 79 0
74 -80 0
79 -80 0
-74 -79 80 0
c gate 81 -74 -79 0
-74 -81 0
-79 -81 0
74 79 81 0
c gate 82 -80 -81 0
-80 -82 0
-81 -82 0
80 81 82 0
c gate 83 -53 -56 0
-53 -83 0
-56 -83 0
53 56 83 0
c gate 84 7 14 0
7 -84 0
14 -84 0
-7 -14 84 0
c gate 85 9 12 0
9 -85 0
12 -85 0
-9 -12 85 0
c gate 86 8 13 0
8 -86 0
13 -86 0
-8 -13 86 0
c gate 87 -85 -86 0
-85 -87 0
-86 -87 0
85 86 87 0
c gate 88 85 86 0
85 -88 0
86 -88 0
-85 -86 88 0
c gate 89 -87 -88 0
-87 -89 0
-88 -89 0
87 88 89 0
c gate 90 84 89 0
84 -90 0
89 -90 0
-84 -89 90 0
c gate 91 -84 -89 0
-84 -91 0
-89 -91 0
84 89 91 0
c gate 92 -90 -91 0
-90 -92 0
-91 -92 0
90 91 92 0
c gate 93 -83 92 0
-83 -93 0
92 -93 0
83 -92 93 0
c gate 94 83 -92 0
83 -94 0
-92 -94 0
-83 92 94 0
c gate 95 -93 -94 0
-93 -95 0
-94 -95 0
93 94 95 0
c gate 96 82 95 0
82 -96 0
95 -96 0
-82 -95 96 0
c gate 97 -82 -95 0
-82 -97 0
-95 -97 0
82 95 97 0
c gate 98 -96 -97 0
-96 -98 0
-97 -98 0
96 97 98 0
c gate 99 -73 98 0
-73 -99 0
98 -99 0
73 -98 99 0
c gate 100 -43 -46 0
-43 -100 0
-46 -100 0
43 46 100 0
c gate 101 -47 -100 0
-47 -101 0
-100 -101 0
47 100 101 0
c gate 102 73 -98 0
73 -102 0
-98 -102 0
-73 98 102 0
c gate 103 -99 -102 0
-99 -103 0
-102 -103 0
99 102 103 0
c gate 104 101 103 0
101 -104 0
103 -104 0
-101 -103 104 0
c gate 105 -99 -104 0
-99 -105 0
-104 -105 0
99 104 105 0
c gate 106 -27 -30 0
-27 -106 0
-30 -106 0
27 30 106 0
c gate 107 2 20 0
2 -107 0
20 -107 0
-2 -20 107 0
c gate 108 4 18 0
4 -108 0
18 -108 0
-4 -18 108 0
c gate 109 3 19 0
3 -109 0
19 -109 0
-3 -19 109 0
c gate 110 -108 -109 0
-108 -110 0
-109 -110 0
108 109 110 0
c gate 111 108 109 0
108 -111 0
109 -111 0
-108 -109 111 0
c gate 112 -110 -111 0
-110 -112 0
-111 -112 0
110 111 112 0
c gate 113 107 112 0
107 -113 0
112 -113 0
-107 -112 113 0
c gate 114 -107 -112 0
-107 -114 0
-112 -114 0
107 112 114 0
c gate 115 -113 -114 0
-113 -115 0
-114 -115 0
113 114 115 0
c gate 116 -78 -80 0
-78 -116 0
-80 -116 0
78 80 116 0
c gate 117 115 -116 0
115 -117 0
-116 -117 0
-115 116 117 0
c gate 118 -115 116 0
-115 -118 0
116 -118 0
115 -116 118 0
c gate 119 -117 -118 0
-117 -119 0
-118 -119 0
117 118 119 0
c gate 120 -106 119 0
-106 -120 0
119 -120 0
106 -119 120 0
c gate 121 106 -119 0
106 -121 0
-119 -121 0
-106 119 121 0
c gate 122 -120 -121 0
-120 -122 0
-121 -122 0
120 121 122 0
c gate 123 -93 -96 0
-93 -123 0
-96 -123 0
93 96 123 0
c gate 124 5 17 0
5 -124 0
17 -124 0
-5 -17 124 0
c gate 125 7 15 0
7 -125 0
15 -125 0
-7 -15 125 0
c gate 126 6 16 0
6 -126 0
16 -126 0
-6 -16 126 0
c gate 127 -125 -126 0
-125 -127 0
-126 -127 0
125 126 127 0
c gate 128 125 126 0
125 -128 0
126 -128 0
-125 -126 128 0
c gate 129 -127 -128 0
-127 -129 0
-128 -129 0
127 128 129 0
c gate 130 124 129 0
124 -130 0
129 -130 0
-124 -129 130 0
c gate 131 -124 -129 0
-124 -131 0
-129 -131 0
124 129 131 0
c gate 132 -130 -131 0
-130 -132 0
-131 -132 0
130 131 132 0
c gate 133 -88 -90 0
-88 -133 0
-90 -133 0
88 90 133 0
c gate 134 8 14 0
8 -134 0
14 -134 0
-8 -14 134 0
c gate 135 9 13 0
9 -135 0
13 -135 0
-9 -13 135 0
c gate 136 10 12 0
10 -136 0
12 -136 0
-10 -12 136 0
c gate 137 135 136 0
135 -137 0
136 -137 0
-135 -136 137 0
c gate 138 -135 -136 0
-135 -138 0
-136 -138 0
135 136 138 0
c gate 139 -137 -138 0
-137 -139 0
-138 -139 0
137 138 139 0
c gate 140 134 139 0
134 -140 0
139 -140 0
-134 -139 140 0
c gate 141 -134 -139 0
-134 -141 0
-139 -141 0
134 139 141 0
c gate 142 -140 -141 0
-140 -142 0
-141 -142 0
140 141 142 0
c gate 143 -133 142 0
-133 -143 0
142 -143 0
133 -142 143 0
c gate 144 133 -142 0
133 -144 0
-142 -144 0
-133 142 144 0
c gate 145 -143 -144 0
-143 -145 0
-144 -145 0
143 144 145 0
c gate 146 132 145 0
132 -146 0
145 -146 0
-132 -145 146 0
c gate 147 -132 -145 0
-132 -147 0
-145 -147 0
132 145 147 0
c gate 148 -146 -147 0
-146 -148 0
-147 -148 0
146 147 148 0
c gate 149 -123 148 0
-123 -149 0
148 -149 0
123 -148 149 0
c gate 150 123 -148 0
123 -150 0
-148 -150 0
-123 148 150 0
c gate 151 -149 -150 0
-149 -151 0
-150 -151 0
149 150 151 0
c gate 152 122 151 0
122 -152 0
151 -152 0
-122 -151 152 0
c gate 153 -122 -151 0
-122 -153 0
-151 -153 0
122 151 153 0
c gate 154 -152 -153 0
-152 -154 0
-153 -154 0
152 153 154 0
c gate 155 -105 154 0
-105 -155 0
154 -155 0
105 -154 155 0
c gate 156 -23 48 0
-23 -156 0
48 -156 0
23 -48 156 0
c gate 157 -49 -156 0
-49 -157 0
-156 -157 0
49 156 157 0
c gate 158 105 -154 0
105 -158 0
-154 -158 0
-105 154 158 0
c gate 159 -155 -158 0
-155 -159 0
-158 -159 0
155 158 159 0
c gate 160 157 159 0
157 -160 0
159 -160 0
-157 -159 160 0
c gate 161 -155 -160 0
-155 -161 0
-160 -161 0
155 160 161 0
c gate 162 2 21 0
2 -162 0
21 -162 0
-2 -21 162 0
c gate 163 1 22 0
1 -163 0
22 -163 0
-1 -22 163 0
c gate 164 -162 -163 0
-162 -164 0
-163 -164 0
162 163 164 0
c gate 165 162 163 0
162 -165 0
163 -165 0
-162 -163 165 0
c gate 166 -164 -165 0
-164 -166 0
-165 -166 0
164 165 166 0
c gate 167 -117 -120 0
-117 -167 0
-120 -167 0
117 120 167 0
c gate 168 166 -167 0
166 -168 0
-167 -168 0
-166 167 168 0
c gate 169 -166 167 0
-166 -169 0
167 -169 0
166 -167 169 0
c gate 170 -168 -169 0
-168 -170 0
-169 -170 0
168 169 170 0
c gate 171 -149 -152 0
-149 -171 0
-152 -171 0
149 152 171 0
c gate 172 -111 -113 0
-111 -172 0
-113 -172 0
111 113 172 0
c gate 173 3 20 0
3 -173 0
20 -173 0
-3 -20 173 0
c gate 174 4 19 0
4 -174 0
19 -174 0
-4 -19 174 0
c gate 175 5 18 0
5 -175 0
18 -175 0
-5 -18 175 0
c gate 176 174 175 0
174 -176 0
175 -176 0
-174 -175 176 0
c gate 177 -174 -175 0
-174 -177 0
-175 -177 0
174 175 177 0
c gate 178 -176 -177 0
-176 -178 0
-177 -178 0
176 177 178 0
c gate 179 173 178 0
173 -179 0
178 -179 0
-173 -178 179 0
c gate 180 -173 -178 0
-173 -180 0
-178 -180 0
173 178 180 0
c gate 181 -179 -180 0
-179 -181 0
-180 -181 0
179 180 181 0
c gate 182 -128 -130 0
-128 -182 0
-130 -182 0
128 130 182 0
c gate 183 181 -182 0
181 -183 0
-182 -183 0
-181 182 183 0
c gate 184 -181 182 0
-181 -184 0
182 -184 0
181 -182 184 0
c gate 185 -183 -184 0
-183 -185 0
-184 -185 0
183 184 185 0
c gate 186 -172 185 0
-172 -186 0
185 -186 0
172 -185 186 0
c gate 187 172 -185 0
172 -187 0
-185 -187 0
-172 185 187 0
c gate 188 -186 -187 0
-186 -188 0
-187 -188 0
186 187 188 0
c gate 189 -143 -146 0
-143 -189 0
-146 -189 0
143 146 189 0
c gate 190 6 17 0
6 -190 0
17 -190 0
-6 -17 190 0
c gate 191 7 16 0
7 -191 0
16 -191 0
-7 -16 191 0
c gate 192 8 15 0
8 -192 0
15 -192 0
-8 -15 192 0
c gate 193 -191 -192 0
-191 -193 0
-192 -193 0
191 192 193 0
c gate 194 191 192 0
191 -194 0
192 -194 0
-191 -192 194 0
c gate 195 -193 -194 0
-193 -195 0
-194 -195 0
193 194 195 0
c gate 196 190 195 0
190 -196 0
195 -196 0
-190 -195 196 0
c gate 197 -190 -195 0
-190 -197 0
-195 -197 0
190 195 197 0
c gate 198 -196 -197 0
-196 -198 0
-197 -198 0
196 197 198 0
c gate 199 -137 -140 0
-137 -199 0
-140 -199 0
137 140 199 0
c gate 200 9 14 0
9 -200 0
14 -200 0
-9 -14 200 0
c gate 201 11 12 0
11 -201 0
12 -201 0
-11 -12 201 0
c gate 202 10 13 0
10 -202 0
13 -202 0
-10 -13 202 0
c gate 203 -201 -202 0
-201 -203 0
-202 -203 0
201 202 203 0
c gate 204 201 202 0
201 -204 0
202 -204 0
-201 -202 204 0
c gate 205 -203 -204 0
-203 -205 0
-204 -205 0
203 204 205 0
c gate 206 -200 -205 0
-200 -206 0
-205 -206 0
200 205 206 0
c gate 207 200 205 0
200 -207 0
205 -207 0
-200 -205 207 0
c gate 208 -206 -207 0
-206 -208 0
-207 -208 0
206 207 208 0
c gate 209 -199 208 0
-199 -209 0
208 -209 0
199 -208 209 0
c gate 210 199 -208 0
199 -210 0
-208 -210 0
-199 208 210 0
c gate 211 -209 -210 0
-209 -211 0
-210 -211 0
209 210 211 0
c gate 212 198 211 0
198 -212 0
211 -212 0
-198 -211 212 0
c gate 213 -198 -211 0
-198 -213 0
-211 -213 0
198 211 213 0
c gate 214 -212 -213 0
-212 -214 0
-213 -214 0
212 213 214 0
c gate 215 -189 214 0
-189 -215 0
214 -215 0
189 -214 215 0
c gate 216 189 -214 0
189 -216 0
-214 -216 0
-189 214 216 0
c gate 217 -215 -216 0
-215 -217 0
-216 -217 0
215 216 217 0
c gate 218 188 217 0
188 -218 0
217 -218 0
-188 -217 218 0
c gate 219 -188 -217 0
-188 -219 0
-217 -219 0
188 217 219 0
c gate 220 -218 -219 0
-218 -220 0
-219 -220 0
218 219 220 0
c gate 221 -171 220 0
-171 -221 0
220 -221 0
171 -220 221 0
c gate 222 171 -220 0
171 -222 0
-220 -222 0
-171 220 222 0
c gate 223 -221 -222 0
-221 -223 0
-222 -223 0
221 222 223 0
c gate 224 170 223 0
170 -224 0
223 -224 0
-170 -223 224 0
c gate 225 -170 -223 0
-170 -225 0
-223 -225 0
170 223 225 0
c gate 226 -224 -225 0
-224 -226 0
-225 -226 0
224 225 226 0
c gate 227 -161 226 0
-161 -227 0
226 -227 0
161 -226 227 0
c gate 228 161 -226 0
161 -228 0
-226 -228 0
-161 226 228 0
c gate 229 -227 -228 0
-227 -229 0
-228 -229 0
227 228 229 0
c gate 230 49 229 0
49 -230 0
229 -230 0
-49 -229 230 0
c PO
230 0
